p cnf 22 55
a 1 5 0
e 2 3 4 6 7 8 9 10 11 12 13 14 15 16 17 18 19 20 21 22 0
3 1 0
3 -2 0
-1 2 -3 0
6 -4 0
6 -5 0
4 5 -6 0
-1 7 -8 0
1 -7 -8 0
-1 -7 8 0
1 7 8 0
-6 8 -9 0
6 -8 -9 0
-6 -8 9 0
6 8 9 0
10 -2 -11 0
-10 2 -11 0
10 2 11 0
-10 -2 11 0
9 -11 -12 0
-9 11 -12 0
9 11 12 0
-9 -11 12 0
13 3 0
13 12 0
-3 -12 -13 0
16 15 0
16 4 0
-15 -4 -16 0
-14 16 -17 0
14 -16 -17 0
-14 -16 17 0
14 16 17 0
-18 15 0
-18 -5 0
-15 5 18 0
-19 -17 0
-19 -18 0
17 18 19 0
15 -1 -20 0
-15 1 -20 0
15 1 20 0
-15 -1 20 0
-19 -20 -21 0
19 20 -21 0
-19 20 21 0
19 -20 21 0
-22 -13 0
-22 21 0
13 -21 22 0
-9 -14 -10 -1 -12 0
-22 7 16 -12 13 0
19 7 16 3 0
18 11 -15 -5 -4 3 0
2 21 14 11 0
22 0
